Route #1: 85 27 59 70 37 54 43
Route #2: 34 104 73 5 133 97 71 101 138 92 120 95 125
Route #3: 118 46 149 99 51 86 77 19 115 136 78 49
Route #4: 52 123 60 23 4
Route #5: 38 98 119 152 44 57 20 47 109 135 83 105
Route #6: 72 141 32 127 134 117 13 113
Route #7: 64 53 21 55 143 129 84
Route #8: 91 74 45 82 128 11 153 56 122
Route #9: 58 65 116 76 18 39 94 139 69 147
Route #10: 142 6 16 103
Route #11: 148 66 132 112 126 107 36 151 93 100 87 30 150 88
Route #12: 144 3
Route #13: 9
Route #14: 10 61 29
Route #15: 26 96
Route #16: 42 145 24 140
Route #17: 48 41 2 90 67 40 89 75
Route #18: 15 110 68 33 80 137 124 114 146 111 106
Route #19: 81 25 50 130
Route #20: 35 28 63 102 62 79 121 108
Route #21: 31
Route #22: 7 14
Route #23: 131 17
Route #24: 8 12
Route #25: 22
